============================[ Problem Statistics ]=============================|                                                                             ||  Number of variables:          4242                                         ||  Number of clauses:            9787                                         ||  Parse time:                   0.20 s                                       ||                                                                             |============================[ Search Statistics ]==============================| Conflicts |          ORIGINAL         |          LEARNT          | Progress ||           |    Vars  Clauses Literals |    Limit  Clauses Lit/Cl |          |===============================================================================|       100 |    1591     5992   280673 |     2197      100     53 | 62.501 % |===============================================================================restarts              : 2conflicts             : 112            (328 /sec)decisions             : 284            (0.00 % random) (833 /sec)propagations          : 9874           (28956 /sec)conflict literals     : 6335           (95.80 % deleted)CPU time              : 0.341 sSATISFIABLE